sat
(:max-memory          18.31
 :memory              18.14
 :nlsat-conflicts     3
 :nlsat-decisions     2
 :nlsat-learned-added 3
 :nlsat-propagations  80
 :nlsat-stages        7
 :num-allocs          12991
 :rlimit-count        11982
 :time                0.01
 :total-time          0.01)
